experiments/sat_smt/run/sat-r+/results/unused_2.res
solved=true
solvingTime=18.0174083709716796875
nActions=10