experiments/sat_smt/run/sat-r+/results/unused_2.out
Timesteps: 1
s UNSATISFIABLE
real 0.12
user 0.01
sys 0.00
Timesteps: 2
s UNSATISFIABLE
real 0.25
user 0.03
sys 0.00
Timesteps: 3
s UNSATISFIABLE
real 0.23
user 0.06
sys 0.00
Timesteps: 4
s UNSATISFIABLE
real 0.27
user 0.09
sys 0.01
Timesteps: 5
s UNSATISFIABLE
real 0.45
user 0.25
sys 0.01
Timesteps: 6
s UNSATISFIABLE
real 0.64
user 0.54
sys 0.00
Timesteps: 7
s UNSATISFIABLE
real 1.83
user 1.64
sys 0.00
Timesteps: 8
s UNSATISFIABLE
real 4.52
user 4.36
sys 0.01
Timesteps: 9
s UNSATISFIABLE
real 5.40
user 5.20
sys 0.01
Timesteps: 10
s SATISFIABLE
real 4.18
user 3.98
sys 0.02
